(declare-fun v3 () (_ BitVec 6))
(declare-fun v5 () (_ BitVec 7))
(declare-fun v12 () (_ BitVec 15))
(declare-fun a54 () (Array (_ BitVec 4) (_ BitVec 5)))
(assert
(let (($e3 (_ bv0 9)))
(let (($e5 false    ))
(let (($e8 (_ bv255 8)))
(let (($e15 (_ bv0 3)))
(let (($e70                           $e5     ))
(let (($e71 (concat $e15 $e70)))
(let (($e72 (select a54 $e71)))
(let (($e116 (concat $e3 v3)))
(let (($e117              v12 ))
(let (($e118               $e116              ))
(let (($e119 (bvand        $e118         $e117 )))
(let (($e172             $e72 ))
(let (($e226                    $e8     ))
(let (($e227 (concat $e226 v5)))
(let (($e228 (bvand $e227 $e119)))
(let (($e1973 (   extract      $e172)))
(let (($e1974             $e1973          ))
(let (($e1975            $e1974 ))
              (ite        $e1975  $e228 $e119)
                                                                                                                                                                                                                                                                                                                                                                                                                                                                                                                                                                                                                                                                                                                                                                                                                                                                                                                                                                                                                                                                                                                                                                                                                                                                                                                                                                                                                                                                                                                                                                                                                                                                                                    )))                                                                                                                                                                                                                                                                                                                                                                                                                                                                                                                                                                                                                                                                                                                                                                                                                                                                                                                                                                                                                                                                                                                                                                                                                                                                                                                                                                                                                                                                                                                                                                                                                                                                                                                                                                                                                )))                                                     )                                                    ))))                                           )))                                    )      )  ) )  )
